c File: flat100_3_0.col
c
c SOURCE: Joseph Culberson (joe@cs.ualberta.ca)
c DESCRIPTION: Quasi-random coloring problem
c              generated with flatness = 0
c                             probability = 0.072
c                             known coloring = 3
c                             random seed = 1096
c              Creation Date:  Thu Jun  4 18:57:06 1998
c Maximum degree = 8 Minimum degree = 1
c p edge 100 239
c cnf created by edge2cnf
p cnf 300 1117
-1 -2 0
-1 -3 0
-2 -3 0
1 2 3 0
-4 -5 0
-4 -6 0
-5 -6 0
4 5 6 0
-7 -8 0
-7 -9 0
-8 -9 0
7 8 9 0
-10 -11 0
-10 -12 0
-11 -12 0
10 11 12 0
-13 -14 0
-13 -15 0
-14 -15 0
13 14 15 0
-16 -17 0
-16 -18 0
-17 -18 0
16 17 18 0
-19 -20 0
-19 -21 0
-20 -21 0
19 20 21 0
-22 -23 0
-22 -24 0
-23 -24 0
22 23 24 0
-25 -26 0
-25 -27 0
-26 -27 0
25 26 27 0
-28 -29 0
-28 -30 0
-29 -30 0
28 29 30 0
-31 -32 0
-31 -33 0
-32 -33 0
31 32 33 0
-34 -35 0
-34 -36 0
-35 -36 0
34 35 36 0
-37 -38 0
-37 -39 0
-38 -39 0
37 38 39 0
-40 -41 0
-40 -42 0
-41 -42 0
40 41 42 0
-43 -44 0
-43 -45 0
-44 -45 0
43 44 45 0
-46 -47 0
-46 -48 0
-47 -48 0
46 47 48 0
-49 -50 0
-49 -51 0
-50 -51 0
49 50 51 0
-52 -53 0
-52 -54 0
-53 -54 0
52 53 54 0
-55 -56 0
-55 -57 0
-56 -57 0
55 56 57 0
-58 -59 0
-58 -60 0
-59 -60 0
58 59 60 0
-61 -62 0
-61 -63 0
-62 -63 0
61 62 63 0
-64 -65 0
-64 -66 0
-65 -66 0
64 65 66 0
-67 -68 0
-67 -69 0
-68 -69 0
67 68 69 0
-70 -71 0
-70 -72 0
-71 -72 0
70 71 72 0
-73 -74 0
-73 -75 0
-74 -75 0
73 74 75 0
-76 -77 0
-76 -78 0
-77 -78 0
76 77 78 0
-79 -80 0
-79 -81 0
-80 -81 0
79 80 81 0
-82 -83 0
-82 -84 0
-83 -84 0
82 83 84 0
-85 -86 0
-85 -87 0
-86 -87 0
85 86 87 0
-88 -89 0
-88 -90 0
-89 -90 0
88 89 90 0
-91 -92 0
-91 -93 0
-92 -93 0
91 92 93 0
-94 -95 0
-94 -96 0
-95 -96 0
94 95 96 0
-97 -98 0
-97 -99 0
-98 -99 0
97 98 99 0
-100 -101 0
-100 -102 0
-101 -102 0
100 101 102 0
-103 -104 0
-103 -105 0
-104 -105 0
103 104 105 0
-106 -107 0
-106 -108 0
-107 -108 0
106 107 108 0
-109 -110 0
-109 -111 0
-110 -111 0
109 110 111 0
-112 -113 0
-112 -114 0
-113 -114 0
112 113 114 0
-115 -116 0
-115 -117 0
-116 -117 0
115 116 117 0
-118 -119 0
-118 -120 0
-119 -120 0
118 119 120 0
-121 -122 0
-121 -123 0
-122 -123 0
121 122 123 0
-124 -125 0
-124 -126 0
-125 -126 0
124 125 126 0
-127 -128 0
-127 -129 0
-128 -129 0
127 128 129 0
-130 -131 0
-130 -132 0
-131 -132 0
130 131 132 0
-133 -134 0
-133 -135 0
-134 -135 0
133 134 135 0
-136 -137 0
-136 -138 0
-137 -138 0
136 137 138 0
-139 -140 0
-139 -141 0
-140 -141 0
139 140 141 0
-142 -143 0
-142 -144 0
-143 -144 0
142 143 144 0
-145 -146 0
-145 -147 0
-146 -147 0
145 146 147 0
-148 -149 0
-148 -150 0
-149 -150 0
148 149 150 0
-151 -152 0
-151 -153 0
-152 -153 0
151 152 153 0
-154 -155 0
-154 -156 0
-155 -156 0
154 155 156 0
-157 -158 0
-157 -159 0
-158 -159 0
157 158 159 0
-160 -161 0
-160 -162 0
-161 -162 0
160 161 162 0
-163 -164 0
-163 -165 0
-164 -165 0
163 164 165 0
-166 -167 0
-166 -168 0
-167 -168 0
166 167 168 0
-169 -170 0
-169 -171 0
-170 -171 0
169 170 171 0
-172 -173 0
-172 -174 0
-173 -174 0
172 173 174 0
-175 -176 0
-175 -177 0
-176 -177 0
175 176 177 0
-178 -179 0
-178 -180 0
-179 -180 0
178 179 180 0
-181 -182 0
-181 -183 0
-182 -183 0
181 182 183 0
-184 -185 0
-184 -186 0
-185 -186 0
184 185 186 0
-187 -188 0
-187 -189 0
-188 -189 0
187 188 189 0
-190 -191 0
-190 -192 0
-191 -192 0
190 191 192 0
-193 -194 0
-193 -195 0
-194 -195 0
193 194 195 0
-196 -197 0
-196 -198 0
-197 -198 0
196 197 198 0
-199 -200 0
-199 -201 0
-200 -201 0
199 200 201 0
-202 -203 0
-202 -204 0
-203 -204 0
202 203 204 0
-205 -206 0
-205 -207 0
-206 -207 0
205 206 207 0
-208 -209 0
-208 -210 0
-209 -210 0
208 209 210 0
-211 -212 0
-211 -213 0
-212 -213 0
211 212 213 0
-214 -215 0
-214 -216 0
-215 -216 0
214 215 216 0
-217 -218 0
-217 -219 0
-218 -219 0
217 218 219 0
-220 -221 0
-220 -222 0
-221 -222 0
220 221 222 0
-223 -224 0
-223 -225 0
-224 -225 0
223 224 225 0
-226 -227 0
-226 -228 0
-227 -228 0
226 227 228 0
-229 -230 0
-229 -231 0
-230 -231 0
229 230 231 0
-232 -233 0
-232 -234 0
-233 -234 0
232 233 234 0
-235 -236 0
-235 -237 0
-236 -237 0
235 236 237 0
-238 -239 0
-238 -240 0
-239 -240 0
238 239 240 0
-241 -242 0
-241 -243 0
-242 -243 0
241 242 243 0
-244 -245 0
-244 -246 0
-245 -246 0
244 245 246 0
-247 -248 0
-247 -249 0
-248 -249 0
247 248 249 0
-250 -251 0
-250 -252 0
-251 -252 0
250 251 252 0
-253 -254 0
-253 -255 0
-254 -255 0
253 254 255 0
-256 -257 0
-256 -258 0
-257 -258 0
256 257 258 0
-259 -260 0
-259 -261 0
-260 -261 0
259 260 261 0
-262 -263 0
-262 -264 0
-263 -264 0
262 263 264 0
-265 -266 0
-265 -267 0
-266 -267 0
265 266 267 0
-268 -269 0
-268 -270 0
-269 -270 0
268 269 270 0
-271 -272 0
-271 -273 0
-272 -273 0
271 272 273 0
-274 -275 0
-274 -276 0
-275 -276 0
274 275 276 0
-277 -278 0
-277 -279 0
-278 -279 0
277 278 279 0
-280 -281 0
-280 -282 0
-281 -282 0
280 281 282 0
-283 -284 0
-283 -285 0
-284 -285 0
283 284 285 0
-286 -287 0
-286 -288 0
-287 -288 0
286 287 288 0
-289 -290 0
-289 -291 0
-290 -291 0
289 290 291 0
-292 -293 0
-292 -294 0
-293 -294 0
292 293 294 0
-295 -296 0
-295 -297 0
-296 -297 0
295 296 297 0
-298 -299 0
-298 -300 0
-299 -300 0
298 299 300 0
-109 -1 0
-110 -2 0
-111 -3 0
-127 -1 0
-128 -2 0
-129 -3 0
-157 -1 0
-158 -2 0
-159 -3 0
-169 -1 0
-170 -2 0
-171 -3 0
-208 -1 0
-209 -2 0
-210 -3 0
-103 -4 0
-104 -5 0
-105 -6 0
-232 -4 0
-233 -5 0
-234 -6 0
-235 -4 0
-236 -5 0
-237 -6 0
-265 -4 0
-266 -5 0
-267 -6 0
-289 -4 0
-290 -5 0
-291 -6 0
-112 -7 0
-113 -8 0
-114 -9 0
-127 -7 0
-128 -8 0
-129 -9 0
-145 -7 0
-146 -8 0
-147 -9 0
-226 -7 0
-227 -8 0
-228 -9 0
-256 -7 0
-257 -8 0
-258 -9 0
-259 -7 0
-260 -8 0
-261 -9 0
-277 -7 0
-278 -8 0
-279 -9 0
-115 -10 0
-116 -11 0
-117 -12 0
-154 -10 0
-155 -11 0
-156 -12 0
-181 -10 0
-182 -11 0
-183 -12 0
-214 -10 0
-215 -11 0
-216 -12 0
-292 -10 0
-293 -11 0
-294 -12 0
-190 -13 0
-191 -14 0
-192 -15 0
-232 -13 0
-233 -14 0
-234 -15 0
-244 -13 0
-245 -14 0
-246 -15 0
-292 -13 0
-293 -14 0
-294 -15 0
-175 -16 0
-176 -17 0
-177 -18 0
-181 -16 0
-182 -17 0
-183 -18 0
-196 -16 0
-197 -17 0
-198 -18 0
-265 -16 0
-266 -17 0
-267 -18 0
-283 -16 0
-284 -17 0
-285 -18 0
-292 -16 0
-293 -17 0
-294 -18 0
-115 -19 0
-116 -20 0
-117 -21 0
-163 -19 0
-164 -20 0
-165 -21 0
-196 -19 0
-197 -20 0
-198 -21 0
-232 -19 0
-233 -20 0
-234 -21 0
-244 -19 0
-245 -20 0
-246 -21 0
-118 -22 0
-119 -23 0
-120 -24 0
-127 -22 0
-128 -23 0
-129 -24 0
-196 -22 0
-197 -23 0
-198 -24 0
-202 -22 0
-203 -23 0
-204 -24 0
-112 -25 0
-113 -26 0
-114 -27 0
-184 -25 0
-185 -26 0
-186 -27 0
-193 -25 0
-194 -26 0
-195 -27 0
-235 -25 0
-236 -26 0
-237 -27 0
-280 -25 0
-281 -26 0
-282 -27 0
-298 -25 0
-299 -26 0
-300 -27 0
-121 -28 0
-122 -29 0
-123 -30 0
-193 -28 0
-194 -29 0
-195 -30 0
-205 -28 0
-206 -29 0
-207 -30 0
-217 -28 0
-218 -29 0
-219 -30 0
-109 -31 0
-110 -32 0
-111 -33 0
-118 -31 0
-119 -32 0
-120 -33 0
-124 -31 0
-125 -32 0
-126 -33 0
-142 -31 0
-143 -32 0
-144 -33 0
-214 -31 0
-215 -32 0
-216 -33 0
-235 -31 0
-236 -32 0
-237 -33 0
-241 -31 0
-242 -32 0
-243 -33 0
-295 -31 0
-296 -32 0
-297 -33 0
-112 -34 0
-113 -35 0
-114 -36 0
-133 -34 0
-134 -35 0
-135 -36 0
-199 -34 0
-200 -35 0
-201 -36 0
-211 -37 0
-212 -38 0
-213 -39 0
-217 -37 0
-218 -38 0
-219 -39 0
-241 -37 0
-242 -38 0
-243 -39 0
-298 -37 0
-299 -38 0
-300 -39 0
-124 -40 0
-125 -41 0
-126 -42 0
-151 -40 0
-152 -41 0
-153 -42 0
-175 -40 0
-176 -41 0
-177 -42 0
-211 -40 0
-212 -41 0
-213 -42 0
-268 -40 0
-269 -41 0
-270 -42 0
-109 -43 0
-110 -44 0
-111 -45 0
-118 -43 0
-119 -44 0
-120 -45 0
-139 -43 0
-140 -44 0
-141 -45 0
-199 -43 0
-200 -44 0
-201 -45 0
-217 -43 0
-218 -44 0
-219 -45 0
-259 -43 0
-260 -44 0
-261 -45 0
-289 -43 0
-290 -44 0
-291 -45 0
-121 -46 0
-122 -47 0
-123 -48 0
-139 -46 0
-140 -47 0
-141 -48 0
-211 -46 0
-212 -47 0
-213 -48 0
-253 -46 0
-254 -47 0
-255 -48 0
-280 -46 0
-281 -47 0
-282 -48 0
-286 -46 0
-287 -47 0
-288 -48 0
-118 -49 0
-119 -50 0
-120 -51 0
-187 -49 0
-188 -50 0
-189 -51 0
-109 -52 0
-110 -53 0
-111 -54 0
-214 -52 0
-215 -53 0
-216 -54 0
-268 -52 0
-269 -53 0
-270 -54 0
-133 -55 0
-134 -56 0
-135 -57 0
-208 -55 0
-209 -56 0
-210 -57 0
-247 -55 0
-248 -56 0
-249 -57 0
-292 -55 0
-293 -56 0
-294 -57 0
-130 -58 0
-131 -59 0
-132 -60 0
-190 -58 0
-191 -59 0
-192 -60 0
-241 -58 0
-242 -59 0
-243 -60 0
-103 -61 0
-104 -62 0
-105 -63 0
-106 -61 0
-107 -62 0
-108 -63 0
-142 -61 0
-143 -62 0
-144 -63 0
-145 -61 0
-146 -62 0
-147 -63 0
-256 -61 0
-257 -62 0
-258 -63 0
-103 -64 0
-104 -65 0
-105 -66 0
-133 -64 0
-134 -65 0
-135 -66 0
-178 -64 0
-179 -65 0
-180 -66 0
-205 -64 0
-206 -65 0
-207 -66 0
-247 -64 0
-248 -65 0
-249 -66 0
-283 -64 0
-284 -65 0
-285 -66 0
-175 -67 0
-176 -68 0
-177 -69 0
-202 -67 0
-203 -68 0
-204 -69 0
-211 -67 0
-212 -68 0
-213 -69 0
-259 -67 0
-260 -68 0
-261 -69 0
-265 -67 0
-266 -68 0
-267 -69 0
-130 -70 0
-131 -71 0
-132 -72 0
-154 -70 0
-155 -71 0
-156 -72 0
-160 -70 0
-161 -71 0
-162 -72 0
-184 -70 0
-185 -71 0
-186 -72 0
-208 -70 0
-209 -71 0
-210 -72 0
-271 -70 0
-272 -71 0
-273 -72 0
-124 -73 0
-125 -74 0
-126 -75 0
-133 -73 0
-134 -74 0
-135 -75 0
-154 -73 0
-155 -74 0
-156 -75 0
-190 -73 0
-191 -74 0
-192 -75 0
-223 -73 0
-224 -74 0
-225 -75 0
-295 -73 0
-296 -74 0
-297 -75 0
-163 -76 0
-164 -77 0
-165 -78 0
-181 -76 0
-182 -77 0
-183 -78 0
-232 -76 0
-233 -77 0
-234 -78 0
-241 -76 0
-242 -77 0
-243 -78 0
-226 -79 0
-227 -80 0
-228 -81 0
-235 -79 0
-236 -80 0
-237 -81 0
-298 -79 0
-299 -80 0
-300 -81 0
-247 -82 0
-248 -83 0
-249 -84 0
-139 -85 0
-140 -86 0
-141 -87 0
-145 -85 0
-146 -86 0
-147 -87 0
-271 -85 0
-272 -86 0
-273 -87 0
-175 -88 0
-176 -89 0
-177 -90 0
-184 -88 0
-185 -89 0
-186 -90 0
-214 -88 0
-215 -89 0
-216 -90 0
-265 -88 0
-266 -89 0
-267 -90 0
-277 -88 0
-278 -89 0
-279 -90 0
-286 -88 0
-287 -89 0
-288 -90 0
-115 -91 0
-116 -92 0
-117 -93 0
-154 -91 0
-155 -92 0
-156 -93 0
-190 -91 0
-191 -92 0
-192 -93 0
-199 -91 0
-200 -92 0
-201 -93 0
-205 -91 0
-206 -92 0
-207 -93 0
-226 -91 0
-227 -92 0
-228 -93 0
-259 -91 0
-260 -92 0
-261 -93 0
-271 -91 0
-272 -92 0
-273 -93 0
-247 -94 0
-248 -95 0
-249 -96 0
-115 -97 0
-116 -98 0
-117 -99 0
-142 -97 0
-143 -98 0
-144 -99 0
-253 -97 0
-254 -98 0
-255 -99 0
-112 -100 0
-113 -101 0
-114 -102 0
-136 -100 0
-137 -101 0
-138 -102 0
-145 -100 0
-146 -101 0
-147 -102 0
-181 -100 0
-182 -101 0
-183 -102 0
-217 -100 0
-218 -101 0
-219 -102 0
-226 -100 0
-227 -101 0
-228 -102 0
-256 -100 0
-257 -101 0
-258 -102 0
-280 -100 0
-281 -101 0
-282 -102 0
-211 -103 0
-212 -104 0
-213 -105 0
-217 -109 0
-218 -110 0
-219 -111 0
-205 -112 0
-206 -113 0
-207 -114 0
-214 -112 0
-215 -113 0
-216 -114 0
-208 -115 0
-209 -116 0
-210 -117 0
-265 -115 0
-266 -116 0
-267 -117 0
-280 -115 0
-281 -116 0
-282 -117 0
-283 -115 0
-284 -116 0
-285 -117 0
-295 -118 0
-296 -119 0
-297 -120 0
-235 -121 0
-236 -122 0
-237 -123 0
-241 -121 0
-242 -122 0
-243 -123 0
-274 -121 0
-275 -122 0
-276 -123 0
-277 -121 0
-278 -122 0
-279 -123 0
-256 -124 0
-257 -125 0
-258 -126 0
-271 -124 0
-272 -125 0
-273 -126 0
-226 -127 0
-227 -128 0
-228 -129 0
-253 -127 0
-254 -128 0
-255 -129 0
-265 -127 0
-266 -128 0
-267 -129 0
-283 -127 0
-284 -128 0
-285 -129 0
-271 -130 0
-272 -131 0
-273 -132 0
-289 -130 0
-290 -131 0
-291 -132 0
-292 -130 0
-293 -131 0
-294 -132 0
-283 -133 0
-284 -134 0
-285 -135 0
-292 -133 0
-293 -134 0
-294 -135 0
-256 -136 0
-257 -137 0
-258 -138 0
-268 -136 0
-269 -137 0
-270 -138 0
-205 -139 0
-206 -140 0
-207 -141 0
-238 -139 0
-239 -140 0
-240 -141 0
-205 -142 0
-206 -143 0
-207 -144 0
-280 -142 0
-281 -143 0
-282 -144 0
-265 -145 0
-266 -146 0
-267 -147 0
-238 -148 0
-239 -149 0
-240 -150 0
-259 -148 0
-260 -149 0
-261 -150 0
-211 -151 0
-212 -152 0
-213 -153 0
-241 -151 0
-242 -152 0
-243 -153 0
-253 -151 0
-254 -152 0
-255 -153 0
-259 -151 0
-260 -152 0
-261 -153 0
-232 -154 0
-233 -155 0
-234 -156 0
-247 -154 0
-248 -155 0
-249 -156 0
-259 -154 0
-260 -155 0
-261 -156 0
-268 -154 0
-269 -155 0
-270 -156 0
-286 -157 0
-287 -158 0
-288 -159 0
-292 -157 0
-293 -158 0
-294 -159 0
-244 -160 0
-245 -161 0
-246 -162 0
-250 -160 0
-251 -161 0
-252 -162 0
-289 -160 0
-290 -161 0
-291 -162 0
-223 -163 0
-224 -164 0
-225 -165 0
-247 -163 0
-248 -164 0
-249 -165 0
-268 -166 0
-269 -167 0
-270 -168 0
-277 -166 0
-278 -167 0
-279 -168 0
-202 -169 0
-203 -170 0
-204 -171 0
-229 -169 0
-230 -170 0
-231 -171 0
-283 -169 0
-284 -170 0
-285 -171 0
-202 -172 0
-203 -173 0
-204 -174 0
-229 -172 0
-230 -173 0
-231 -174 0
-229 -175 0
-230 -176 0
-231 -177 0
-229 -178 0
-230 -179 0
-231 -180 0
-238 -178 0
-239 -179 0
-240 -180 0
-280 -178 0
-281 -179 0
-282 -180 0
-295 -178 0
-296 -179 0
-297 -180 0
-223 -181 0
-224 -182 0
-225 -183 0
-226 -181 0
-227 -182 0
-228 -183 0
-289 -181 0
-290 -182 0
-291 -183 0
-298 -184 0
-299 -185 0
-300 -186 0
-217 -187 0
-218 -188 0
-219 -189 0
-235 -187 0
-236 -188 0
-237 -189 0
-211 -190 0
-212 -191 0
-213 -192 0
-214 -190 0
-215 -191 0
-216 -192 0
-238 -190 0
-239 -191 0
-240 -192 0
-268 -190 0
-269 -191 0
-270 -192 0
-217 -193 0
-218 -194 0
-219 -195 0
-235 -193 0
-236 -194 0
-237 -195 0
-232 -196 0
-233 -197 0
-234 -198 0
-244 -196 0
-245 -197 0
-246 -198 0
-220 -199 0
-221 -200 0
-222 -201 0
-223 -199 0
-224 -200 0
-225 -201 0
-262 -199 0
-263 -200 0
-264 -201 0
-295 -199 0
-296 -200 0
-297 -201 0
